sat
(= |goto_symex::&92;guard#1| true)
(= |goto_symex::&92;guard#2| false)
(= |memory_model::choice_rf_1_16_0_9_T_0| true)
(= |memory_model::choice_rf_1_16_2_39_T_1| false)
(= |memory_model::choice_rf_2_38_0_9_T_2| true)
(= |memory_model::choice_rf_2_38_1_17_T_3| false)
(= |memory_model::choice_rf_0_39_0_7_T_4| false)
(= |memory_model::choice_rf_0_39_0_35_T_5| true)
(= |memory_model::choice_rf_2_22_0_17_F_6| true)
(= |memory_model::choice_rf_2_22_1_0_F_7| false)
(= |memory_model::choice_rf_0_43_0_10_F_8| false)
(= |memory_model::choice_rf_0_43_1_15_F_9| true)
(= |memory_model::choice_rf_0_43_2_37_F_10| false)
(= |memory_model::choice_rf_1_14_0_10_F_11| false)
(= |memory_model::choice_rf_1_14_2_37_F_12| true)
(= |memory_model::choice_rf_2_36_0_10_F_13| true)
(= |memory_model::choice_rf_2_36_1_15_F_14| false)
(= |memory_model::choice_rf_0_66_0_11_F_15| false)
(= |memory_model::choice_rf_0_66_2_20_F_16| true)
(= |memory_model::choice_rf_2_18_0_11_F_17| false)
(= |memory_model::choice_rf_0_64_0_12_F_18| false)
(= |memory_model::choice_rf_0_64_2_23_F_19| true)
(= |memory_model::choice_rf_2_21_0_12_F_20| false)
(= |memory_model::choice_rf_0_45_0_13_F_21| false)
(= |memory_model::choice_rf_0_45_0_44_F_22| true)
(= |memory_model::choice_rf_0_70_0_14_F_23| false)
(= |memory_model::choice_rf_0_84_0_14_F_24| false)
(= |memory_model::choice_rf_0_84_0_72_F_25| true)
(= |memory_model::choice_rf_0_85_0_14_F_26| false)
(= |memory_model::choice_rf_0_85_0_72_F_27| true)
(= |memory_model::choice_rf_0_46_0_18_F_28| false)
(= |memory_model::choice_rf_0_46_1_1_F_29| false)
(= |memory_model::choice_rf_0_46_1_13_F_30| true)
(= |memory_model::choice_rf_0_46_2_35_F_31| false)
(= |memory_model::choice_rf_0_62_0_18_F_32| false)
(= |memory_model::choice_rf_0_62_0_57_F_33| true)
(= |memory_model::choice_rf_0_62_1_1_F_34| false)
(= |memory_model::choice_rf_0_62_1_13_F_35| false)
(= |memory_model::choice_rf_0_62_2_35_F_36| false)
(= |memory_model::choice_rf_1_2_0_18_F_37| false)
(= |memory_model::choice_rf_1_2_0_57_F_38| false)
(= |memory_model::choice_rf_1_2_0_77_F_39| false)
(= |memory_model::choice_rf_1_2_1_1_F_40| false)
(= |memory_model::choice_rf_1_2_2_35_F_41| true)
(= |memory_model::choice_rf_2_24_0_18_F_42| false)
(= |memory_model::choice_rf_2_24_0_57_F_43| false)
(= |memory_model::choice_rf_2_24_0_77_F_44| false)
(= |memory_model::choice_rf_2_24_1_1_F_45| true)
(= |memory_model::choice_rf_2_24_1_13_F_46| false)
(= |memory_model::choice_rf_0_68_0_19_F_47| false)
(= |memory_model::choice_rf_0_63_0_20_F_48| false)
(= |memory_model::choice_rf_0_51_0_21_F_49| true)
(= |memory_model::choice_rf_0_65_0_21_F_50| false)
(= |memory_model::choice_rf_0_65_0_54_F_51| true)
(= |memory_model::choice_rf_2_4_0_21_F_52| true)
(= |memory_model::choice_rf_2_4_0_54_F_53| false)
(= |memory_model::choice_rf_2_4_0_74_F_54| false)
(= |memory_model::choice_rf_1_7_0_22_F_55| true)
(= |memory_model::choice_rf_2_2_0_22_F_56| true)
(= |memory_model::choice_rf_2_2_1_10_F_57| false)
(= |memory_model::choice_rf_2_1_0_23_F_58| true)
(= |memory_model::choice_rf_2_29_0_23_F_59| false)
(= |memory_model::choice_rf_2_29_2_10_F_60| true)
(= |memory_model::choice_rf_0_48_0_24_F_61| false)
(= |memory_model::choice_rf_0_48_2_11_F_62| true)
(= |memory_model::choice_rf_0_67_0_24_F_63| false)
(= |memory_model::choice_rf_0_67_0_53_F_64| true)
(= |memory_model::choice_rf_0_67_2_11_F_65| false)
(= |memory_model::choice_rf_2_3_0_24_F_66| false)
(= |memory_model::choice_rf_2_3_0_53_F_67| false)
(= |memory_model::choice_rf_2_3_0_73_F_68| false)
(= |memory_model::choice_rf_1_5_0_25_F_69| false)
(= |memory_model::choice_rf_1_5_2_9_F_70| true)
(= |memory_model::choice_rf_2_6_0_25_F_71| false)
(= |memory_model::choice_rf_2_6_1_9_F_72| false)
(= |memory_model::choice_rf_2_0_0_26_F_73| false)
(= |memory_model::choice_rf_2_26_0_26_F_74| false)
(= |memory_model::choice_rf_2_26_2_8_F_75| true)
(= |memory_model::choice_rf_0_50_0_29_F_76| false)
(= |memory_model::choice_rf_0_50_2_14_F_77| true)
(= |memory_model::choice_rf_0_69_0_29_F_78| false)
(= |memory_model::choice_rf_0_69_2_14_F_79| true)
(= |memory_model::choice_rf_1_6_0_29_F_80| false)
(= |memory_model::choice_rf_1_6_0_76_F_81| false)
(= |memory_model::choice_rf_1_6_2_14_F_82| true)
(= |memory_model::choice_rf_2_7_0_29_F_83| true)
(= |memory_model::choice_rf_2_7_0_76_F_84| false)
(= |memory_model::choice_rf_2_28_0_29_F_85| false)
(= |memory_model::choice_rf_2_28_0_76_F_86| false)
(= |memory_model::choice_rf_2_28_2_14_F_87| true)
(= |memory_model::choice_rf_0_52_0_30_F_88| false)
(= |memory_model::choice_rf_0_52_1_12_F_89| true)
(= |memory_model::choice_rf_0_52_2_12_F_90| false)
(= |memory_model::choice_rf_0_52_2_34_F_91| false)
(= |memory_model::choice_rf_0_59_0_30_F_92| false)
(= |memory_model::choice_rf_0_59_0_56_F_93| true)
(= |memory_model::choice_rf_0_59_1_12_F_94| false)
(= |memory_model::choice_rf_0_59_2_12_F_95| false)
(= |memory_model::choice_rf_0_59_2_34_F_96| false)
(= |memory_model::choice_rf_1_8_0_30_F_97| false)
(= |memory_model::choice_rf_1_8_0_56_F_98| false)
(= |memory_model::choice_rf_1_8_0_82_F_99| false)
(= |memory_model::choice_rf_1_8_2_12_F_100| false)
(= |memory_model::choice_rf_1_8_2_34_F_101| true)
(= |memory_model::choice_rf_2_5_0_30_F_102| true)
(= |memory_model::choice_rf_2_5_0_56_F_103| false)
(= |memory_model::choice_rf_2_5_0_82_F_104| false)
(= |memory_model::choice_rf_2_5_1_12_F_105| false)
(= |memory_model::choice_rf_2_30_0_30_F_106| false)
(= |memory_model::choice_rf_2_30_0_56_F_107| false)
(= |memory_model::choice_rf_2_30_0_82_F_108| false)
(= |memory_model::choice_rf_2_30_1_12_F_109| false)
(= |memory_model::choice_rf_2_30_2_12_F_110| true)
(= |memory_model::choice_rf_0_47_0_31_F_111| false)
(= |memory_model::choice_rf_0_47_2_15_F_112| true)
(= |memory_model::choice_rf_0_71_0_31_F_113| false)
(= |memory_model::choice_rf_0_71_2_15_F_114| true)
(= |memory_model::choice_rf_1_3_0_31_F_115| false)
(= |memory_model::choice_rf_1_3_0_75_F_116| false)
(= |memory_model::choice_rf_1_3_2_15_F_117| true)
(= |memory_model::choice_rf_2_25_0_31_F_118| false)
(= |memory_model::choice_rf_2_25_0_75_F_119| false)
(= |memory_model::choice_rf_2_25_2_15_F_120| true)
(= |memory_model::choice_rf_0_49_0_32_F_121| false)
(= |memory_model::choice_rf_0_49_1_11_F_122| true)
(= |memory_model::choice_rf_0_49_2_13_F_123| false)
(= |memory_model::choice_rf_0_49_2_33_F_124| false)
(= |memory_model::choice_rf_0_61_0_32_F_125| false)
(= |memory_model::choice_rf_0_61_0_55_F_126| true)
(= |memory_model::choice_rf_0_61_1_11_F_127| false)
(= |memory_model::choice_rf_0_61_2_13_F_128| false)
(= |memory_model::choice_rf_0_61_2_33_F_129| false)
(= |memory_model::choice_rf_1_4_0_32_F_130| false)
(= |memory_model::choice_rf_1_4_0_55_F_131| false)
(= |memory_model::choice_rf_1_4_0_80_F_132| false)
(= |memory_model::choice_rf_1_4_2_13_F_133| false)
(= |memory_model::choice_rf_1_4_2_33_F_134| true)
(= |memory_model::choice_rf_2_27_0_32_F_135| false)
(= |memory_model::choice_rf_2_27_0_55_F_136| false)
(= |memory_model::choice_rf_2_27_0_80_F_137| false)
(= |memory_model::choice_rf_2_27_1_11_F_138| false)
(= |memory_model::choice_rf_2_27_2_13_F_139| true)
(= |memory_model::choice_rf_2_16_0_33_F_140| false)
(= |memory_model::choice_rf_2_19_0_33_F_141| false)
(= |memory_model::choice_rf_2_19_2_17_F_142| true)
(= |memory_model::choice_rf_0_58_0_15_F_143| false)
(= |memory_model::choice_rf_0_60_0_16_F_144| false)
(= |memory_model::choice_ws-ext_0_9_1_17_T_145| true)
(= |memory_model::choice_ws-ext_0_9_2_39_T_146| true)
(= |memory_model::choice_ws-ext_1_17_2_39_T_147| false)
(= |memory_model::choice_ws-ext_0_17_1_0_F_148| true)
(= |memory_model::choice_ws-ext_0_10_1_15_F_149| true)
(= |memory_model::choice_ws-ext_0_10_2_37_F_150| true)
(= |memory_model::choice_ws-ext_1_15_2_37_F_151| false)
(= |memory_model::choice_ws-ext_0_11_2_20_F_152| true)
(= |memory_model::choice_ws-ext_0_12_2_23_F_153| true)
(= |memory_model::choice_ws-ext_0_18_1_1_F_154| true)
(= |memory_model::choice_ws-ext_0_18_1_13_F_155| true)
(= |memory_model::choice_ws-ext_0_18_2_35_F_156| true)
(= |memory_model::choice_ws-ext_0_57_1_1_F_157| false)
(= |memory_model::choice_ws-ext_0_57_1_13_F_158| false)
(= |memory_model::choice_ws-ext_0_57_2_35_F_159| false)
(= |memory_model::choice_ws-ext_0_77_1_1_F_160| false)
(= |memory_model::choice_ws-ext_0_77_1_13_F_161| false)
(= |memory_model::choice_ws-ext_0_77_2_35_F_162| false)
(= |memory_model::choice_ws-ext_1_1_2_35_F_163| true)
(= |memory_model::choice_ws-ext_1_13_2_35_F_164| false)
(= |memory_model::choice_ws-ext_0_22_1_10_F_165| true)
(= |memory_model::choice_ws-ext_0_23_2_10_F_166| true)
(= |memory_model::choice_ws-ext_0_23_2_32_F_167| true)
(= |memory_model::choice_ws-ext_0_24_2_11_F_168| true)
(= |memory_model::choice_ws-ext_0_53_2_11_F_169| false)
(= |memory_model::choice_ws-ext_0_73_2_11_F_170| false)
(= |memory_model::choice_ws-ext_0_25_1_9_F_171| true)
(= |memory_model::choice_ws-ext_0_25_2_9_F_172| true)
(= |memory_model::choice_ws-ext_1_9_2_9_F_173| false)
(= |memory_model::choice_ws-ext_0_26_2_8_F_174| true)
(= |memory_model::choice_ws-ext_0_26_2_31_F_175| true)
(= |memory_model::choice_ws-ext_0_29_2_14_F_176| true)
(= |memory_model::choice_ws-ext_0_76_2_14_F_177| false)
(= |memory_model::choice_ws-ext_0_30_1_12_F_178| true)
(= |memory_model::choice_ws-ext_0_30_2_12_F_179| true)
(= |memory_model::choice_ws-ext_0_30_2_34_F_180| true)
(= |memory_model::choice_ws-ext_0_56_1_12_F_181| false)
(= |memory_model::choice_ws-ext_0_56_2_12_F_182| false)
(= |memory_model::choice_ws-ext_0_56_2_34_F_183| false)
(= |memory_model::choice_ws-ext_0_82_1_12_F_184| false)
(= |memory_model::choice_ws-ext_0_82_2_12_F_185| false)
(= |memory_model::choice_ws-ext_0_82_2_34_F_186| false)
(= |memory_model::choice_ws-ext_1_12_2_12_F_187| false)
(= |memory_model::choice_ws-ext_1_12_2_34_F_188| false)
(= |memory_model::choice_ws-ext_0_31_2_15_F_189| true)
(= |memory_model::choice_ws-ext_0_75_2_15_F_190| false)
(= |memory_model::choice_ws-ext_0_32_1_11_F_191| true)
(= |memory_model::choice_ws-ext_0_32_2_13_F_192| true)
(= |memory_model::choice_ws-ext_0_32_2_33_F_193| true)
(= |memory_model::choice_ws-ext_0_55_1_11_F_194| false)
(= |memory_model::choice_ws-ext_0_55_2_13_F_195| false)
(= |memory_model::choice_ws-ext_0_55_2_33_F_196| false)
(= |memory_model::choice_ws-ext_0_80_1_11_F_197| false)
(= |memory_model::choice_ws-ext_0_80_2_13_F_198| false)
(= |memory_model::choice_ws-ext_0_80_2_33_F_199| false)
(= |memory_model::choice_ws-ext_1_11_2_13_F_200| false)
(= |memory_model::choice_ws-ext_1_11_2_33_F_201| false)
(= |memory_model::choice_ws-ext_0_33_2_17_F_202| true)
(= |main$tmp_guard0#3| #b00000001)
(= |__CPROVER_next_thread_id#3| #b00000000000000000000000000000001)
(= |__unbuffered_cnt#2| #b00000000000000000000000000000010)
(= |y$w_buff0_used#2| #b00000000)
(= |y$r_buff0_thd0#2| #b00000000)
(= |y$w_buff0#2| #b00000000000000000000000000000010)
(= |y$w_buff1_used#2| #b00000000)
(= |y$r_buff1_thd0#2| #b00000000)
(= |y$w_buff1#2| #b00000000000000000000000000000000)
(= |y#2| #b00000000000000000000000000000010)
(= |y#4| #b00000000000000000000000000000010)
(= |y$w_buff0_used#6| #b00000000)
(= |y$w_buff1_used#6| #b00000000)
(= |y$r_buff0_thd0#8| #b00000000)
(= |y$r_buff1_thd0#7| #b00000000)
(= |nondet_symex::nondet0| #b00000000000000000000000000000000)
(= |weak$$choice0#2| #b00000000)
(= |weak$$choice0#3| #b10000000)
(= |nondet_symex::nondet1| #b10000000000000000000000000000000)
(= |weak$$choice2#2| #b00000001)
(= |weak$$choice2#3| #b10000000)
(= |y$flush_delayed#2| #b00000001)
(= |y$flush_delayed#3| #b10000000)
(= |y#6| #b00000000000000000000000000000010)
(= |y$mem_tmp#2| #b00000000000000000000000000000010)
(= |y$mem_tmp#3| #b10000000000000000000000000000000)
(= |y$w_buff0_used#11| #b00000000)
(= |y$r_buff0_thd0#11| #b00000000)
(= |y$w_buff1_used#9| #b00000000)
(= |y$r_buff1_thd0#9| #b00000000)
(= |y$w_buff0#4| #b00000000000000000000000000000010)
(= |y$w_buff1#4| #b00000000000000000000000000000000)
(= |y#9| #b00000000000000000000000000000010)
(= |y$w_buff0#10| #b00000000000000000000000000000010)
(= |y$w_buff1#10| #b00000000000000000000000000000000)
(= |y$w_buff0_used#23| #b00000000)
(= |y$w_buff1_used#17| #b00000000)
(= |y$r_buff0_thd0#33| #b00000000)
(= |y$r_buff1_thd0#19| #b00000000)
(= |__unbuffered_p1_EAX#2| #b00000000000000000000000000000001)
(= |__unbuffered_p1_EBX#2| #b00000000000000000000000000000000)
(= |main$tmp_guard1#2| #b00000000)
(= |main$tmp_guard1#3| #b10000000)
(= |y#13| #b00000000000000000000000000000010)
(= |y$flush_delayed#6| #b00000000)
(= |main$tmp_guard1#6| #b00000000)
(= |pthread_create::1::this_thread_id!1@0#0| #b10000000000000000000000000000000)
(= |y$w_buff0_used#31| #b00000000)
(= |y$r_buff0_thd1#2| #b00000000)
(= |y$w_buff0#12| #b00000000000000000000000000000010)
(= |y$w_buff1_used#21| #b00000000)
(= |y$r_buff1_thd1#2| #b00000000)
(= |y$w_buff1#12| #b00000000000000000000000000000000)
(= |y#16| #b00000000000000000000000000000010)
(= |__unbuffered_cnt#4| #b00000000000000000000000000000001)
(= |pthread_create::1::this_thread_id!2@0#0| #b00000000000000000000000000000000)
(= |y$w_buff0#14| #b00000000000000000000000000000000)
(= |y$w_buff0_used#34| #b00000000)
(= |y$r_buff0_thd0#38| #b00000000)
(= |y$r_buff1_thd0#21| #b00000000)
(= |y$r_buff1_thd0#22| #b10000000)
(= |y$r_buff0_thd1#5| #b00000000)
(= |y$r_buff1_thd1#5| #b00000000)
(= |y$r_buff1_thd1#6| #b10000000)
(= |y$r_buff0_thd2#2| #b00000000)
(= |y$r_buff1_thd2#2| #b00000000)
(= |y$r_buff1_thd2#3| #b10000000)
(= |y$r_buff0_thd2#4| #b00000001)
(= |z#2| #b00000000000000000000000000000001)
(= |z#3| #b10000000000000000000000000000000)
(= |z#5| #b00000000000000000000000000000001)
(= |__unbuffered_p1_EAX#4| #b00000000000000000000000000000001)
(= |__unbuffered_p1_EAX#5| #b10000000000000000000000000000000)
(= |x#3| #b00000000000000000000000000000000)
(= |__unbuffered_p1_EBX#4| #b00000000000000000000000000000000)
(= |__unbuffered_p1_EBX#5| #b10000000000000000000000000000000)
(= |y$w_buff0_used#37| #b00000001)
(= |y$r_buff0_thd2#6| #b00000001)
(= |y$w_buff0#17| #b00000000000000000000000000000010)
(= |y$w_buff1_used#25| #b00000000)
(= |y$r_buff1_thd2#5| #b00000000)
(= |y$w_buff1#15| #b00000000000000000000000000000000)
(= |y#19| #b00000000000000000000000000000001)
(= |y#21| #b00000000000000000000000000000010)
(= |y$w_buff0_used#41| #b00000000)
(= |y$w_buff1_used#29| #b00000000)
(= |y$r_buff0_thd2#12| #b00000001)
(= |y$r_buff1_thd2#10| #b00000000)
(= |__unbuffered_cnt#7| #b00000000000000000000000000000000)
(= |__unbuffered_cnt#9| #b00000000000000000000000000000001)
(= |__CPROVER_threads_exited#1$wclk$8| #b00011010)
(= |__CPROVER_threads_exited#2$rclk$8| #b11101101)
(= |__CPROVER_threads_exited#5$wclk$8| #b11110110)
(= |__CPROVER_threads_exited#4$rclk$8| #b11011100)
(= |__CPROVER_threads_exited#3$wclk$8| #b11111001)
(= |x#1$wclk$8| #b00111010)
(= |x#3$rclk$8| #b10101111)
(= |x#2$wclk$8| #b10110110)
(= |__unbuffered_cnt#6$wclk$8| #b11100100)
(= |__unbuffered_cnt#2$rclk$8| #b11101100)
(= |__unbuffered_cnt#10$wclk$8| #b11001100)
(= |__unbuffered_cnt#1$wclk$8| #b00011011)
(= |__unbuffered_cnt#4$rclk$8| #b11100100)
(= |__unbuffered_cnt#7$rclk$8| #b11001100)
(= |__unbuffered_p1_EAX#6$wclk$8| #b10101110)
(= |__unbuffered_p1_EAX#2$rclk$8| #b11101111)
(= |__unbuffered_p1_EAX#1$wclk$8| #b00101000)
(= |__unbuffered_p1_EAX#5$rclk$8| #b10101110)
(= |__unbuffered_p1_EBX#6$wclk$8| #b10101111)
(= |__unbuffered_p1_EBX#2$rclk$8| #b11101111)
(= |__unbuffered_p1_EBX#1$wclk$8| #b00101101)
(= |__unbuffered_p1_EBX#5$rclk$8| #b10101111)
(= |main$tmp_guard1#5| #b00000000)
(= |y#15$wclk$8| #b10110111)
(= |y#2$rclk$8| #b11101110)
(= |y#18$wclk$8| #b11001101)
(= |y#22$wclk$8| #b10111110)
(= |y#6$rclk$8| #b11101111)
(= |y#1$wclk$8| #b00111011)
(= |y#16$rclk$8| #b11001101)
(= |y#5$wclk$8| #b11101110)
(= |y#14$wclk$8| #b11101111)
(= |y#19$rclk$8| #b10111110)
(= |y$r_buff0_thd0#1$wclk$8| #b01000010)
(= |y$r_buff0_thd0#38$rclk$8| #b10101011)
(= |y$r_buff0_thd0#10$wclk$8| #b11101110)
(= |y$r_buff0_thd0#37$wclk$8| #b11101111)
(= |y$r_buff0_thd1#1$wclk$8| #b01000100)
(= |y$r_buff0_thd1#2$rclk$8| #b11001101)
(= |y$r_buff0_thd1#5$rclk$8| #b10101011)
(= |y$r_buff0_thd1#4$wclk$8| #b11001101)
(= |y$r_buff0_thd2#1$wclk$8| #b01000101)
(= |y$r_buff0_thd2#2$rclk$8| #b10101011)
(= |y$r_buff0_thd2#6$rclk$8| #b10111110)
(= |y$r_buff1_thd0#23$wclk$8| #b10101011)
(= |y$r_buff1_thd0#2$rclk$8| #b11101110)
(= |y$r_buff1_thd0#9$rclk$8| #b11101111)
(= |y$r_buff1_thd0#1$wclk$8| #b01000110)
(= |y$r_buff1_thd0#22$rclk$8| #b10101011)
(= |y$r_buff1_thd0#8$wclk$8| #b11101110)
(= |y$r_buff1_thd0#20$wclk$8| #b11101111)
(= |y$r_buff1_thd1#1$wclk$8| #b01000111)
(= |y$r_buff1_thd1#2$rclk$8| #b11001101)
(= |y$r_buff1_thd1#7$wclk$8| #b10101011)
(= |y$r_buff1_thd1#6$rclk$8| #b10101011)
(= |y$r_buff1_thd1#4$wclk$8| #b11001101)
(= |y$r_buff1_thd2#1$wclk$8| #b01001000)
(= |y$r_buff1_thd2#3$rclk$8| #b10101011)
(= |y$r_buff1_thd2#5$rclk$8| #b10111110)
(= |y$w_buff0#16$wclk$8| #b10101011)
(= |y$w_buff0#2$rclk$8| #b11101110)
(= |y$w_buff0#4$rclk$8| #b11101111)
(= |y$w_buff0#1$wclk$8| #b01001011)
(= |y$w_buff0#12$rclk$8| #b11001101)
(= |y$w_buff0#11$wclk$8| #b11101111)
(= |y$w_buff0#14$rclk$8| #b10101011)
(= |y$w_buff0#17$rclk$8| #b10111110)
(= |y$w_buff0_used#33$wclk$8| #b11001101)
(= |y$w_buff0_used#2$rclk$8| #b11101110)
(= |y$w_buff0_used#36$wclk$8| #b10101011)
(= |y$w_buff0_used#45$wclk$8| #b10111110)
(= |y$w_buff0_used#11$rclk$8| #b11101111)
(= |y$w_buff0_used#1$wclk$8| #b01001100)
(= |y$w_buff0_used#31$rclk$8| #b11001101)
(= |y$w_buff0_used#10$wclk$8| #b11101110)
(= |y$w_buff0_used#30$wclk$8| #b11101111)
(= |y$w_buff0_used#34$rclk$8| #b10101011)
(= |y$w_buff0_used#37$rclk$8| #b10111110)
(= |y$w_buff1#14$wclk$8| #b10101011)
(= |y$w_buff1#2$rclk$8| #b11101110)
(= |y$w_buff1#4$rclk$8| #b11101111)
(= |y$w_buff1#1$wclk$8| #b01001101)
(= |y$w_buff1#12$rclk$8| #b11001101)
(= |y$w_buff1#11$wclk$8| #b11101111)
(= |y$w_buff1#15$rclk$8| #b10111110)
(= |y$w_buff1_used#23$wclk$8| #b11001101)
(= |y$w_buff1_used#2$rclk$8| #b11101110)
(= |y$w_buff1_used#24$wclk$8| #b10101011)
(= |y$w_buff1_used#31$wclk$8| #b10111110)
(= |y$w_buff1_used#9$rclk$8| #b11101111)
(= |y$w_buff1_used#1$wclk$8| #b01001110)
(= |y$w_buff1_used#21$rclk$8| #b11001101)
(= |y$w_buff1_used#8$wclk$8| #b11101110)
(= |y$w_buff1_used#20$wclk$8| #b11101111)
(= |y$w_buff1_used#25$rclk$8| #b10111110)
(= |z#1$wclk$8| #b10000111)
(= |z#3$rclk$8| #b10101101)
(= |z#5$rclk$8| #b10101110)
(= |y$r_buff0_thd2#5$wclk$8| #b10101011)
(= |y$r_buff0_thd2#14$wclk$8| #b10111110)
(= |y$r_buff1_thd2#4$wclk$8| #b10101011)
(= |y$r_buff1_thd2#11$wclk$8| #b10111110)
(= |z#4$wclk$8| #b10101101)
(= t1$37$spwnclk$8 #b10001100)
(= t1$42$spwnclk$8 #b10101010)
(= |main::1::t1610!0@1$wclk$8| #b00000000)
(= |__CPROVER_dead_object#1$wclk$8| #b00010000)
(= |__CPROVER_deallocated#1$wclk$8| #b00010001)
(= |__CPROVER_malloc_is_new_array#1$wclk$8| #b00010010)
(= |__CPROVER_malloc_object#1$wclk$8| #b00010011)
(= |__CPROVER_malloc_size#1$wclk$8| #b00010101)
(= |__CPROVER_memory_leak#1$wclk$8| #b00010110)
(= |__CPROVER_next_thread_id#1$wclk$8| #b00010111)
(= |__CPROVER_pipe_count#1$wclk$8| #b00011000)
(= |main$tmp_guard0#1$wclk$8| #b00101110)
(= |main$tmp_guard1#1$wclk$8| #b00101111)
(= |weak$$choice0#1$wclk$8| #b00110100)
(= |weak$$choice2#1$wclk$8| #b00111001)
(= |y$flush_delayed#1$wclk$8| #b00111100)
(= |y$mem_tmp#1$wclk$8| #b01000001)
(= |y$read_delayed#1$wclk$8| #b01001001)
(= |y$read_delayed_var#1$wclk$8| #b01001010)
(= |main::1::t1609!0@1#1$wclk$8| #b10001000)
(= |__CPROVER_next_thread_id#2$wclk$8| #b10001010)
(= |main::1::t1609!0@1#2$wclk$8| #b10001011)
(= |main::1::t1610!0@1#1$wclk$8| #b10001101)
(= |__CPROVER_next_thread_id#3$rclk$8| #b10101000)
(= |__CPROVER_next_thread_id#5$wclk$8| #b10101000)
(= |main::1::t1610!0@1#2$wclk$8| #b10101001)
(= |main$tmp_guard0#2$wclk$8| #b11101100)
(= |main$tmp_guard0#3$rclk$8| #b11101101)
(= |y$r_buff0_thd0#2$rclk$8| #b11101110)
(= |weak$$choice0#3$rclk$8| #b11101111)
(= |weak$$choice2#3$rclk$8| #b11101111)
(= |y$mem_tmp#3$rclk$8| #b11101111)
(= |y$r_buff0_thd0#11$rclk$8| #b11101111)
(= |y$flush_delayed#3$rclk$8| #b11101111)
(= |main$tmp_guard1#3$rclk$8| #b11101111)
(= |main$tmp_guard1#4$wclk$8| #b11101111)
(= |y$mem_tmp#5$wclk$8| #b11101111)
(= |y$flush_delayed#7$wclk$8| #b11101111)
(= |weak$$choice2#11$wclk$8| #b11101111)
(= |weak$$choice0#4$wclk$8| #b11101111)
(= |main$tmp_guard1#5$rclk$8| #b11111100)
(= |main$tmp_guard1#6$rclk$8| #b11111110)
(= array_of.0 @fun_7)
(= |__CPROVER_threads_exited#2| @fun_7)
(= |__CPROVER_threads_exited#4| @fun_7)
(function @fun_7
 (type (Array (_ BitVec 32) (_ BitVec 1)))
 (= (@fun_7 #b00000000000000000000000000000000) #b0)
 (default #b1))

real	0m0.015s
user	0m0.011s
sys	0m0.004s
State: AC Run_time: 0.017270803451538086